VER
4

OBJSENSE
MIN

QCECONES
1 2
2
2 2
1


VAR
5 1
F 5

CON
20 4
@0:SVECQCE 11
SVECQE 5
SVECPSD 3
L= 1

OBJACOORD
2
0 1.0
1 1.0

ACOORD
12
0 0 1.0
1 2 1.0
4 3 1.0
6 4 1.0
11 1 1.0
13 2 1.0
13 4 1.0
16 2 1.0
17 3 1.0
18 4 1.0
19 2 1.0
19 4 1.0

BCOORD
2
12 -1.0
19 1.0
